c CNF generator v0.9
p cnf 50 50
-14 -21 -23 0
17 -6 34 0
10 18 42 0
29 10 -6 0
-41 8 -11 0
-17 20 32 0
17 15 -6 0
-25 -12 19 0
8 17 -15 0
13 10 -38 0
4 18 -35 0
3 15 -38 0
31 8 -27 0
9 7 10 0
-45 33 14 0
2 -32 -1 0
39 33 -41 0
-6 37 -24 0
41 -30 -21 0
36 30 -48 0
5 -13 -14 0
50 -15 13 0
-17 -27 -2 0
21 35 26 0
9 -38 31 0
44 -42 -28 0
2 21 32 0
49 10 -38 0
34 -50 15 0
-21 -38 24 0
-3 -12 -22 0
24 24 -50 0
34 -11 25 0
-41 -8 -17 0
-21 -37 -44 0
5 -43 -18 0
-17 -6 -13 0
-47 30 4 0
12 -43 41 0
39 -28 -32 0
-38 -9 -28 0
23 44 -35 0
27 -34 -16 0
-37 -9 40 0
-15 39 12 0
24 33 19 0
-1 -29 -19 0
-20 -26 -6 0
-16 -37 33 0
-33 24 42 0
